%Enumeration of letters used in problem
LETTER = {C,A,O,Z,H,I,P,T,E,S};
%Number of rows inside problem, in example abowe we have 5 rows
n_rows = 5;
/*
* Since each row can have different number of letters we need 
* to provide information about number of letters inside each row
*/
n_columns = [3,3,3,2,4];
/*
* Since we wrote problem as 1d array, we need to know information where each row starts
* Given that each row can have different number of columns
*/
first_indices = [1, 4, 7,10,12];
/*
* Problem represented by array of LETTER that are written sequentially
*/
problem = [C,A,O,Z,H,I,C,A,O,P,I,T,E,S,T];

%This specific case has constraint regarding some letters, indices of these letters are given here
z=4;
p=7;
o=3;